nN = 6;
nR = 15;
nH = 1;

a = [[21, 7, 6, 22, 7, 22, 21, 15, 21, 20, 6, 5, 6, 9, 9], [5, 16, 23, 18, 19, 8, 24, 7, 20, 19, 22, 11, 17, 22, 11], [20, 8, 13, 21, 9, 19, 22, 18, 22, 8, 23, 14, 19, 25, 9], [5, 24, 19, 19, 21, 24, 10, 5, 20, 6, 10, 15, 21, 25, 6], [20, 12, 21, 17, 23, 9, 11, 11, 15, 21, 17, 20, 5, 13, 7], [10, 24, 14, 18, 8, 23, 15, 15, 24, 20, 5, 15, 10, 9, 14]];
c = [[[0, 0, 0, 0, 0, 0, 0, 0, 0, 0, 0, 0, 0, 0, 0], [36, 36, 33, 48, 48, 49, 30, 33, 42, 40, 39, 48, 40, 46, 49], [38, 30, 42, 39, 48, 50, 39, 39, 37, 47, 39, 44, 41, 31, 47], [43, 36, 44, 50, 37, 44, 50, 31, 45, 33, 40, 48, 48, 34, 50], [43, 44, 48, 49, 35, 46, 38, 37, 40, 30, 46, 42, 50, 44, 43], [47, 30, 37, 34, 37, 47, 42, 43, 40, 33, 49, 50, 45, 30, 37]], [[0, 0, 0, 0, 0, 0, 0, 0, 0, 0, 0, 0, 0, 0, 0], [0, 0, 0, 0, 0, 0, 0, 0, 0, 0, 0, 0, 0, 0, 0], [30, 30, 45, 31, 46, 50, 36, 49, 43, 42, 35, 43, 41, 36, 32], [43, 38, 32, 35, 48, 31, 40, 37, 37, 32, 35, 39, 38, 41, 35], [48, 46, 45, 33, 31, 33, 49, 34, 47, 34, 33, 45, 46, 45, 32], [38, 45, 44, 31, 48, 47, 42, 44, 48, 44, 40, 38, 43, 35, 34]], [[0, 0, 0, 0, 0, 0, 0, 0, 0, 0, 0, 0, 0, 0, 0], [0, 0, 0, 0, 0, 0, 0, 0, 0, 0, 0, 0, 0, 0, 0], [0, 0, 0, 0, 0, 0, 0, 0, 0, 0, 0, 0, 0, 0, 0], [36, 44, 36, 43, 43, 44, 36, 40, 33, 32, 42, 35, 34, 49, 35], [30, 37, 32, 44, 44, 32, 43, 34, 46, 45, 41, 41, 48, 43, 34], [37, 50, 47, 38, 41, 49, 32, 31, 41, 31, 50, 45, 39, 49, 45]], [[0, 0, 0, 0, 0, 0, 0, 0, 0, 0, 0, 0, 0, 0, 0], [0, 0, 0, 0, 0, 0, 0, 0, 0, 0, 0, 0, 0, 0, 0], [0, 0, 0, 0, 0, 0, 0, 0, 0, 0, 0, 0, 0, 0, 0], [0, 0, 0, 0, 0, 0, 0, 0, 0, 0, 0, 0, 0, 0, 0], [37, 48, 42, 48, 46, 32, 44, 33, 37, 33, 45, 31, 49, 49, 46], [41, 37, 33, 30, 34, 35, 37, 39, 47, 49, 36, 45, 45, 30, 32]], [[0, 0, 0, 0, 0, 0, 0, 0, 0, 0, 0, 0, 0, 0, 0], [0, 0, 0, 0, 0, 0, 0, 0, 0, 0, 0, 0, 0, 0, 0], [0, 0, 0, 0, 0, 0, 0, 0, 0, 0, 0, 0, 0, 0, 0], [0, 0, 0, 0, 0, 0, 0, 0, 0, 0, 0, 0, 0, 0, 0], [0, 0, 0, 0, 0, 0, 0, 0, 0, 0, 0, 0, 0, 0, 0], [30, 43, 36, 40, 39, 44, 43, 33, 47, 32, 30, 34, 49, 45, 36]], [[0, 0, 0, 0, 0, 0, 0, 0, 0, 0, 0, 0, 0, 0, 0], [0, 0, 0, 0, 0, 0, 0, 0, 0, 0, 0, 0, 0, 0, 0], [0, 0, 0, 0, 0, 0, 0, 0, 0, 0, 0, 0, 0, 0, 0], [0, 0, 0, 0, 0, 0, 0, 0, 0, 0, 0, 0, 0, 0, 0], [0, 0, 0, 0, 0, 0, 0, 0, 0, 0, 0, 0, 0, 0, 0], [0, 0, 0, 0, 0, 0, 0, 0, 0, 0, 0, 0, 0, 0, 0]]];
Q = [[29], [35], [30], [27], [27], [30]];

q = [[[19], [10], [21], [19], [5], [18], [19], [12], [9], [12], [5], [25], [8], [10], [21]], [[25], [21], [16], [23], [20], [24], [17], [5], [18], [14], [13], [11], [22], [14], [13]], [[22], [9], [14], [13], [12], [12], [13], [7], [20], [23], [18], [19], [15], [14], [14]], [[7], [6], [8], [19], [11], [6], [6], [25], [13], [21], [6], [16], [24], [8], [20]], [[13], [14], [9], [18], [22], [13], [16], [9], [10], [9], [12], [9], [11], [24], [12]], [[8], [23], [9], [24], [21], [21], [7], [11], [10], [8], [24], [12], [9], [8], [23]]];
p = [0.27, 0.92, 0.98, 0.44, 0.2, 0.37, 0.52, 0.79, 0.31, 0.87, 0.88, 0.27, 0.34, 0.65, 0.93];
